CMD:
./solvers/bin/cadical --plain --no-reduce -t 1600 ./data/cnfs//mul9/mul9.11.cnf

c --- [ banner ] -------------------------------------------------------------
c 
c CaDiCaL SAT Solver
c Copyright (c) 2016-2024
c A. Biere, M. Fleury, N. Froleyks, K. Fazekas, F. Pollitt, T. Faller
c JKU Linz, University of Freiburg, TU Wien
c 
c Version 2.1.3 5296d3d2a9bf48c154ab2acb5e44625776d821bf
c g++ (Gentoo 12.3.1_p20230526 p2) 12.3.1 20230526 -Wall -Wextra -O3 -DNDEBUG
c Sat Aug 9 07:26:21 PDT 2025 Linux cedar2.int.cedar.computecanada.ca 5.14.0-362.24.2.el9_3.x86_64 x86_64
c 
c --- [ limit ] --------------------------------------------------------------
c 
c setting time limit to 1600 seconds real time (due to '-t 1600')
c 
c --- [ parsing input ] ------------------------------------------------------
c 
c reading DIMACS file from './data/cnfs//mul9/mul9.11.cnf'
c opening file to read './data/cnfs//mul9/mul9.11.cnf'
c found 'p cnf 207856 620523' header
c parsed 620523 clauses in 0.09 seconds process time
c 
c --- [ options ] ------------------------------------------------------------
c 
c   --compact=false                (different from default 'true')
c   --decompose=false              (different from default 'true')
c   --deduplicate=false            (different from default 'true')
c   --elim=false                   (different from default 'true')
c   --probe=false                  (different from default 'true')
c   --reduce=false                 (different from default 'true')
c   --subsume=false                (different from default 'true')
c   --ternary=false                (different from default 'true')
c   --transred=false               (different from default 'true')
c   --vivify=false                 (different from default 'true')
c 
c --- [ solving ] ------------------------------------------------------------
c 
c time measured in process time since initialization
c 
c  seconds  reductions  redundant  irredundant
c         MB    restarts       trail       variables
c          level   conflicts       glue          remaining
c 
c *  0.09 96  0 0   0    0    0  0% 0 592575 183726 88%
c {  0.12 99  0 0   0    0    0  0% 0 592575 183726 88%
c }  0.17 100 141 0  81 1000  896 15% 6 592575 183726 88%
c [  0.17 100  0 0  81 1000  896  0% 0 592575 183726 88%
c O  0.22 100 317 0  81 1002  898 69% 2 592575 183726 88%
c i  0.23 100 444 0  81 1092  986 97% 2 592575 183599 88%
c i  0.28 101 417 0  82 2033 1890 95% 9 592575 183330 88%
c ]  0.33 101 244 0  82 3001 2777 56% 10 592575 183330 88%
c {  0.33 101 141 0  82 3001 2777 15% 6 592575 183330 88%
c F  0.33 101 141 0  82 3003 2779 15% 6 592575 183329 88%
c #  0.53 102 80 0 438 6006 5606 15% 7 592575 183329 88%
c }  0.59 102 77 0 536 7001 6536 15% 7 592575 183329 88%
c [  0.59 102 244 0 536 7001 6536 56% 10 592575 183329 88%
c I  1.05 104 150 0 538 10008 9387 33% 19 592575 183329 88%
c ]  1.76 106 126 0 541 15001 14137 26% 23 592575 183329 88%
c {  1.76 106 77 0 541 15001 14137 15% 7 592575 183329 88%
c B  1.77 106 77 0 544 15010 14146 15% 7 592575 183329 88%
c W  2.41 107 65 0 1184 21011 19645 15% 8 548107 183329 88%
c F  3.02 107 61 0 1756 28012 26203 15% 8 548107 183329 88%
c }  3.37 107 61 0 2110 31001 29032 15% 8 548107 183329 88%
c 
c  seconds    reductions     redundant   irredundant
c          MB     restarts          trail        variables
c            level     conflicts        glue           remaining
c 
c [  3.37 107 126 0 2110 31001 29032 26% 23 548107 183329 88%
c B  4.11 107 108 0 2113 36013 33830 23% 23 548107 183329 88%
c W  6.33 109 96 0 2117 45014 42278 21% 30 548107 183329 88%
c O  9.19 113 85 0 2119 55016 51261 20% 35 548107 183329 88%
c ] 11.61 116 83 0 2125 63003 58604 20% 35 548107 183329 88%
c { 11.61 116 61 0 2125 63003 58604 15% 8 548107 183329 88%
c B 12.16 120 60 0 2522 66018 61458 15% 8 548107 183329 88%
c W 14.47 123 58 0 3851 78020 72810 15% 8 548107 183329 88%
c # 16.93 126 57 0 5258 91021 85122 15% 9 548107 183329 88%
c B 19.93 129 57 0 6700 105022 98424 15% 9 548107 183329 88%
c W 23.41 134 55 0 8131 120025 112615 15% 9 548107 183329 88%
c } 24.89 136 54 0 8735 127004 119121 15% 9 548107 183329 88%
c [ 24.89 136 83 0 8735 127004 119121 20% 35 548107 183329 88%
c B 25.26 137 67 0 8739 136027 126985 18% 29 548107 183329 88%
c W 38.27 144 65 0 8744 153030 142108 19% 35 548107 183329 88%
c I 51.12 150 63 0 8747 171032 157407 19% 38 548107 183329 88%
c B 60.85 158 64 0 8758 190034 174495 19% 37 548107 183329 88%
c W 75.71 169 63 0 8766 210035 191360 19% 39 548107 183329 88%
c O 85.92 177 63 0 8774 231036 210668 19% 38 548107 183329 88%
c B 97.85 186 61 0 8776 253038 230094 19% 40 548107 183329 88%
c 
c  seconds   reductions      redundant    irredundant
c          MB    restarts            trail        variables
c           level     conflicts          glue           remaining
c 
c ] 98.31 187 61 0 8776 255004 231967 19% 40 548107 183329 88%
c { 98.31 187 54 0 8776 255004 231967 15% 9 548107 183329 88%
c F 107.86 205 54 0 11128 276039 251929 15% 9 548107 183329 88%
c B 119.56 212 52 0 13945 300041 274667 15% 10 548107 183329 88%
c W 133.47 222 52 0 16612 325042 298430 15% 10 548107 183329 88%
c # 149.84 227 52 0 19874 351044 323181 15% 10 548107 183329 88%
c B 162.58 233 50 0 21980 378045 348529 15% 10 548107 183329 88%
c W 181.02 245 50 0 25032 406046 375008 15% 10 548107 183329 88%
c F 201.23 250 51 0 28212 435047 402698 15% 11 548107 183329 88%
c B 222.08 258 50 0 31369 465050 431372 15% 11 548107 183329 88%
c W 245.34 270 50 0 34348 496054 460932 15% 11 548107 183329 88%
c } 259.64 271 51 0 36203 511004 475190 15% 11 548107 183329 88%
c [ 259.64 271 61 0 36203 511004 475190 19% 40 548107 183329 88%
c W 274.06 283 60 0 36203 528056 491349 19% 37 548107 183329 88%
c I 308.42 293 60 0 36216 561057 519480 19% 39 548107 183329 88%
c B 333.14 304 60 0 36232 595059 548815 19% 40 548107 183329 88%
c W 365.27 319 59 0 36240 630060 575827 19% 41 548107 183329 88%
c O 400.27 329 58 0 36256 666062 602457 19% 42 548107 183329 88%
c B 453.52 342 59 0 36265 703063 632144 19% 43 548107 183329 88%
c W 496.93 356 58 0 36267 741065 665862 19% 42 548107 183329 88%
c 
c  seconds    reductions       redundant    irredundant
c           MB     restarts            trail        variables
c            level      conflicts          glue           remaining
c 
c I 540.23 369 58 0 36267 780067 701981 19% 42 548107 183329 88%
c B 592.32 384 58 0 36276 820068 733217 19% 42 548107 183329 88%
c W 668.14 403 58 0 36296 861069 766403 19% 44 548107 183329 88%
c O 761.56 415 58 0 36307 903070 796786 19% 46 548107 183329 88%
c B 829.18 432 58 0 36327 946072 826988 19% 46 548107 183329 88%
c W 910.76 449 57 0 36330 990074 862945 19% 46 548107 183329 88%
c ] 959.67 460 57 0 36342 1023006 887285 19% 47 548107 183329 88%
c { 959.67 460 51 0 36342 1023006 887285 15% 11 548107 183329 88%
c # 981.83 515 51 0 37807 1035075 898810 15% 11 548107 183329 88%
c B 1061.25 539 51 0 42974 1081076 942659 15% 12 548107 183329 88%
c W 1133.91 560 50 0 47291 1128077 987259 15% 12 548107 183329 88%
c F 1214.26 573 50 0 52142 1176078 1032840 15% 12 548107 183329 88%
c B 1280.18 587 45 0 55834 1225079 1076264 15% 12 548107 183329 88%
c W 1370.67 607 48 0 60810 1275080 1123988 15% 12 548107 183329 88%
c # 1465.16 619 50 0 65622 1326082 1172848 15% 12 548107 183329 88%
c B 1563.20 636 52 0 70320 1378083 1222627 15% 13 548107 183329 88%
c } 1587.30 642 50 0 71419 1398159 1241858 15% 13 548107 183329 88%
c ? 1587.30 642 50 0 71419 1398159 1241858 15% 13 548107 183329 88%
c 
c --- [ result ] -------------------------------------------------------------
c 
c UNKNOWN
c 
c --- [ run-time profiling ] -------------------------------------------------
c 
c process time taken by individual solving procedures
c (percentage relative to process time for solving)
c 
c      1587.21  100.00% search
c       800.82   50.45% unstable
c       780.98   49.20% stable
c         5.39    0.34% walk
c         0.09    0.01% parse
c         0.02    0.00% lucky
c         0.00    0.00% simplify
c   =================================
c      1587.21   99.99% solve
c 
c last line shows process time for solving
c (percentage relative to total process time)
c 
c --- [ statistics ] ---------------------------------------------------------
c 
c chronological:            309116        22.11 %  of conflicts
c conflicts:               1398159       880.89    per second
c decisions:               5665840      3569.68    per second
c fixed:                     24526        11.80 %  of all variables
c learned:                 1362939        97.48 %  per conflict
c learned_lits:          415044366       100.00 %  learned literals
c minimized:                     0         0.00 %  learned literals
c shrunken:              268025289        64.58 %  learned literals
c minishrunken:           74830723        18.03 %  learned literals
c otfs:                       1067         0.08 %  of conflict
c propagations:         3182963031         2.01 M  per second
c rephased:                     52     26887.67    interval
c restarts:                  71419        19.58    interval
c stabilizing:                   5        48.78 %  of conflicts
c subsumed:                 120986         6.19 %  of all clauses
c strengthened:               1017         0.05 %  of all clauses
c walked:                       16     87384.94    interval
c 
c seconds are measured in process time for solving
c 
c --- [ resources ] ----------------------------------------------------------
c 
c total process time since initialization:      1587.31    seconds
c total real time since initialization:         1600.01    seconds
c maximum resident set size of process:          646.59    MB
c 
c --- [ shutting down ] ------------------------------------------------------
c 
c exit 0
